p cnf 71 200
c t mc
3 -4 -5 0
-3 4 -5 0
3 4 5 0
-3 -4 5 0
-2 -5 -6 0
2 5 -6 0
-2 5 6 0
2 -5 6 0
-7 -1 0
-7 -6 0
1 6 7 0
-8 9 -10 0
8 -9 -10 0
-8 -9 10 0
8 9 10 0
-12 11 0
-12 -2 0
-11 2 12 0
-15 13 0
-15 -14 0
-13 14 15 0
15 8 -16 0
-15 -8 -16 0
15 -8 16 0
-15 8 16 0
17 -12 0
17 16 0
12 -16 -17 0
-18 -19 -20 0
18 19 -20 0
-18 19 20 0
18 -19 20 0
-17 20 -21 0
17 -20 -21 0
-17 -20 21 0
17 20 21 0
-10 -21 -22 0
10 21 -22 0
-10 21 22 0
10 -21 22 0
-23 -19 -24 0
23 19 -24 0
-23 19 24 0
23 -19 24 0
24 25 -26 0
-24 -25 -26 0
24 -25 26 0
-24 25 26 0
-28 26 0
-28 27 0
-26 -27 28 0
29 28 0
29 -9 0
-28 9 -29 0
31 30 0
31 -8 0
-30 8 -31 0
-33 -1 0
-33 32 0
1 -32 33 0
31 -33 -34 0
-31 33 -34 0
31 33 34 0
-31 -33 34 0
-35 29 0
-35 -34 0
-29 34 35 0
-22 -35 -36 0
22 35 -36 0
-22 35 36 0
22 -35 36 0
37 -7 0
37 -36 0
7 36 -37 0
-38 23 0
-38 3 0
-23 -3 38 0
-40 -6 -41 0
40 6 -41 0
-40 6 41 0
40 -6 41 0
-39 41 -42 0
39 -41 -42 0
-39 -41 42 0
39 41 42 0
43 -38 0
43 -42 0
38 42 -43 0
44 37 0
44 -43 0
-37 43 -44 0
3 13 -45 0
-3 -13 -45 0
3 -13 45 0
-3 13 45 0
-46 -26 0
-46 -45 0
26 45 46 0
-48 47 0
-48 13 0
-47 -13 48 0
-9 -48 -49 0
9 48 -49 0
-9 48 49 0
9 -48 49 0
50 46 0
50 -49 0
-46 49 -50 0
31 -16 -51 0
-31 16 -51 0
31 16 51 0
-31 -16 51 0
-52 31 0
-52 15 0
-31 -15 52 0
-51 52 -53 0
51 -52 -53 0
-51 -52 53 0
51 52 53 0
54 18 0
54 -47 0
-18 47 -54 0
-55 24 0
-55 15 0
-24 -15 55 0
56 -54 0
56 -55 0
54 55 -56 0
4 30 -57 0
-4 -30 -57 0
4 -30 57 0
-4 30 57 0
56 -57 -58 0
-56 57 -58 0
56 57 58 0
-56 -57 58 0
59 -30 0
59 -45 0
30 45 -59 0
-60 -58 0
-60 59 0
58 -59 60 0
-53 60 -61 0
53 -60 -61 0
-53 -60 61 0
53 60 61 0
62 50 0
62 61 0
-50 -61 -62 0
64 -63 0
64 -63 0
63 -64 0
2 -64 -65 0
-2 64 -65 0
2 64 65 0
-2 -64 65 0
66 -28 0
66 -64 0
28 64 -66 0
-67 -24 0
-67 27 0
24 -27 67 0
68 -66 0
68 67 0
66 -67 -68 0
65 68 -69 0
-65 -68 -69 0
65 -68 69 0
-65 68 69 0
-62 -69 -70 0
62 69 -70 0
-62 69 70 0
62 -69 70 0
71 -44 0
71 70 0
44 -70 -71 0
8 36 -52 0
4 -65 -44 -57 0
16 -66 39 45 49 -51 9 31 10 0
68 -71 57 70 -47 0
35 24 -34 20 56 4 0
-24 17 -28 -37 21 67 0
27 61 -37 35 -21 -44 -67 36 -57 -49 0
-53 24 -47 -60 -61 -30 -65 -13 0
-69 -26 38 -5 -59 -8 0
32 42 0
50 13 -51 32 -55 -26 -33 59 -22 0
42 -27 -41 6 -9 17 55 -62 0
-6 -30 41 23 0
-24 -66 -62 -55 -65 -15 0
21 -5 0
-24 -1 41 11 -70 -32 -22 -45 -55 0
-43 17 63 0
-1 -13 71 -50 -36 0
-5 70 43 0
-50 24 21 63 -36 -17 0
-29 30 -69 26 -32 60 -52 -56 65 0
-6 29 4 -32 36 27 26 -22 -58 0
6 35 58 -65 -38 -36 19 -1 -57 0
71 0
